NAME: tsp_80
COMMENT: Random TSP instance
TYPE: TSP
DIMENSION: 50
EDGE_WEIGHT_TYPE: EUC_2D
NODE_COORD_SECTION
1 694 820
2 449 270
3 332 402
4 319 180
5 729 865
6 980 409
7 399 463
8 110 580
9 352 578
10 769 360
11 582 926
12 417 244
13 40 289
14 364 999
15 981 921
16 884 705
17 202 489
18 703 922
19 903 810
20 854 301
21 449 955
22 84 958
23 661 298
24 786 206
25 777 831
26 873 760
27 451 544
28 73 758
29 502 693
30 921 773
31 994 566
32 205 551
33 740 3
34 718 326
35 206 422
36 792 447
37 507 274
38 672 646
39 118 508
40 86 474
41 990 240
42 546 273
43 562 896
44 310 989
45 282 155
46 535 855
47 338 686
48 243 189
49 790 200
50 17 267
